5
199
577
40	24
1	3	4	9	8	4	21	3	
2	3	16	4	9	4	9	3	
3	2	11	5	9	4	
4	5	23	3	19	3	11	3	9	3	6	3	
5	5	8	12	6	11	4	9	8	5	9	2	
6	2	9	5	9	3	
7	4	6	8	9	5	19	3	10	3	
8	1	12	3	
9	2	6	4	7	2	
10	4	4	8	8	7	8	7	15	2	
11	1	5	11	
12	1	10	3	
13	4	6	8	7	5	8	4	7	3	
14	4	7	5	24	4	5	3	13	2	
15	2	8	10	5	2	
16	1	14	3	
17	1	7	8	
18	2	8	3	7	3	
19	3	6	6	7	3	4	2	
20	4	6	11	8	4	17	2	5	2	
21	1	9	2	
22	5	6	11	23	4	10	4	9	2	4	2	
23	3	17	4	11	4	20	3	
24	5	7	10	8	6	7	6	5	3	14	2	
25	3	15	3	8	2	5	2	
26	2	7	9	7	3	
27	2	6	3	4	3	
28	4	8	12	4	11	6	6	5	3	
29	1	8	8	
30	4	4	11	11	5	7	4	22	3	
31	5	6	9	4	8	20	4	15	3	4	2	
32	4	11	5	6	4	10	3	5	3	
33	2	6	11	11	3	
34	3	7	6	9	4	7	4	
35	1	10	3	
36	2	22	3	11	3	
37	4	5	8	7	6	5	4	22	2	
38	1	4	9	
39	3	6	5	11	3	7	3	
40	2	5	7	5	3	
41	4	8	5	22	3	12	3	9	2	
42	1	24	4	
43	1	11	4	
44	1	6	4	
45	2	8	5	7	3	
46	2	22	4	12	3	
47	3	21	3	13	3	11	2	
48	4	5	7	4	6	6	4	19	3	
49	1	4	10	
50	2	5	5	18	4	
51	2	6	6	18	2	
52	3	11	5	7	4	5	3	
53	5	8	5	4	4	7	3	6	3	22	2	
54	3	8	6	11	3	6	3	
55	4	7	12	6	8	10	6	21	3	
56	4	7	6	21	4	11	2	8	2	
57	1	9	4	
58	4	6	11	5	6	7	5	18	2	
59	4	13	4	6	4	20	3	6	3	
60	4	8	5	14	4	22	3	11	3	
61	4	4	6	23	4	12	4	23	3	
62	3	12	4	19	3	6	2	
63	3	4	4	18	3	10	3	
64	1	4	12	
65	1	11	2	
66	5	7	5	13	4	6	4	20	3	9	3	
67	5	5	11	4	10	11	4	8	3	6	3	
68	4	7	11	5	5	7	3	10	2	
69	3	6	8	12	6	6	3	
70	5	5	9	6	6	8	4	7	3	6	2	
71	3	5	6	24	4	6	4	
72	3	6	9	24	2	18	2	
73	2	15	4	6	3	
74	2	11	6	6	2	
75	2	20	3	10	3	
76	4	7	5	12	4	7	4	13	3	
77	1	5	6	
78	1	6	4	
79	2	12	4	5	3	
80	4	7	9	7	7	7	3	4	3	
81	1	8	3	
82	3	4	4	22	3	6	2	
83	5	5	6	8	5	7	4	11	3	14	2	
84	2	20	4	7	3	
85	1	7	8	
86	2	7	5	20	3	
87	1	6	6	
88	2	6	4	16	3	
89	3	7	11	5	7	17	3	
90	1	6	4	
91	2	9	4	19	3	
92	1	6	10	
93	4	11	5	7	5	6	4	13	2	
94	4	5	12	7	6	5	6	24	2	
95	4	8	7	8	4	23	3	8	3	
96	1	7	6	
97	5	6	10	5	7	7	4	5	4	11	3	
98	4	7	9	10	6	11	3	11	3	
99	4	4	6	23	2	22	2	16	2	
100	4	8	10	5	10	4	10	19	2	
101	2	5	5	9	2	
102	2	12	6	5	4	
103	2	12	4	11	3	
104	3	15	4	11	4	11	2	
105	1	13	3	
106	4	7	5	11	4	7	4	7	3	
107	4	14	4	14	3	5	3	6	2	
108	3	11	4	4	4	9	3	
109	2	22	4	17	4	
110	2	6	5	4	4	
111	4	7	9	16	4	14	4	10	2	
112	4	8	11	17	4	6	4	16	3	
113	2	8	12	11	5	
114	4	4	8	6	7	10	4	19	3	
115	2	20	4	15	4	
116	3	8	5	11	4	6	3	
117	5	21	4	7	3	4	3	20	2	11	2	
118	5	4	12	6	10	7	6	7	5	11	4	
119	2	11	5	8	5	
120	5	9	6	7	6	12	4	9	3	9	2	
121	1	7	3	
122	2	7	4	5	4	
123	5	7	11	6	11	6	6	9	5	6	4	
124	4	6	12	18	4	6	4	8	2	
125	4	6	12	8	6	7	4	7	3	
126	2	17	3	15	3	
127	1	12	3	
128	4	7	5	11	4	6	4	9	3	
129	1	6	3	
130	3	10	4	22	3	13	2	
131	5	7	7	12	4	8	4	6	4	4	4	
132	4	7	5	7	5	8	3	24	2	
133	5	7	5	18	3	16	3	16	3	5	3	
134	5	7	8	6	6	11	3	18	2	5	2	
135	1	11	5	
136	2	11	3	11	2	
137	2	8	9	9	4	
138	1	20	3	
139	1	11	3	
140	4	9	6	16	3	20	2	13	2	
141	2	21	3	18	2	
142	2	7	5	13	3	
143	5	5	12	7	8	4	8	7	5	13	4	
144	4	20	4	6	4	11	3	10	3	
145	1	7	11	
146	1	8	4	
147	2	5	10	7	6	
148	5	5	9	19	4	7	3	5	3	7	2	
149	5	7	8	6	5	8	4	7	4	8	3	
150	3	6	7	6	4	13	2	
151	1	5	4	
152	2	4	10	7	4	
153	4	6	10	5	9	15	4	5	2	
154	2	5	8	7	6	
155	5	7	10	8	5	22	4	21	3	6	2	
156	4	5	11	6	7	8	4	4	3	
157	3	8	5	7	4	7	3	
158	3	6	9	5	9	21	2	
159	3	10	6	5	5	4	4	
160	4	7	10	9	5	7	3	4	2	
161	3	7	10	8	5	7	3	
162	4	6	8	7	7	19	4	7	3	
163	2	23	3	23	2	
164	4	6	7	4	6	11	5	8	3	
165	1	9	4	
166	3	13	4	5	4	13	2	
167	5	5	9	20	4	7	4	6	3	4	3	
168	3	5	6	11	4	8	3	
169	4	5	9	4	8	20	4	15	2	
170	2	6	4	11	3	
171	2	8	4	6	3	
172	1	6	6	
173	5	5	8	4	5	17	2	11	2	6	2	
174	5	10	5	15	3	13	3	7	3	7	2	
175	4	6	5	10	4	6	4	22	3	
176	5	6	7	14	4	9	4	5	4	12	2	
177	3	5	11	6	6	8	5	
178	4	8	9	6	6	4	4	17	3	
179	5	8	7	22	3	16	3	14	3	4	2	
180	5	6	12	7	11	6	6	21	4	5	3	
181	4	8	4	8	3	5	2	4	2	
182	4	7	10	6	8	5	8	8	3	
183	2	5	10	8	4	
184	2	5	5	12	3	
185	1	16	3	
186	1	20	2	
187	2	5	5	12	3	
188	1	12	3	
189	5	7	10	8	9	8	8	13	3	9	3	
190	3	8	8	11	5	13	3	
191	3	6	11	8	10	5	10	
192	4	6	12	7	9	5	6	9	2	
193	2	5	4	19	3	
194	5	4	5	15	4	11	4	6	4	15	3	
195	2	7	4	7	3	
196	1	4	9	
197	2	10	4	6	3	
198	1	7	12	
199	5	5	11	7	6	4	6	17	3	9	3	
